* ENCODING=ISO-8859-1
NAME          CPLEX
ROWS
 N  obj1    
 G  c1      
 G  c2      
 G  c3      
 G  c4      
 G  c5      
 G  c6      
 G  c7      
 G  c8      
 G  c9      
 G  c10     
 G  c11     
 G  c12     
 G  c13     
 G  c14     
 G  c15     
 G  c16     
 G  c17     
 G  c18     
 G  c19     
 G  c20     
 G  c21     
 G  c22     
 G  c23     
 G  c24     
 G  c25     
 G  c26     
 G  c27     
 G  c28     
 G  c29     
 G  c30     
 G  c31     
 G  c32     
 G  c33     
 G  c34     
 G  c35     
 G  c36     
 G  c37     
 G  c38     
 G  c39     
 G  c40     
 G  c41     
 G  c42     
 G  c43     
 G  c44     
 G  c45     
 G  c46     
 G  c47     
 G  c48     
 G  c49     
 G  c50     
 G  c51     
 G  c52     
 G  c53     
 G  c54     
 G  c55     
 G  c56     
 G  c57     
 G  c58     
 G  c59     
 G  c60     
COLUMNS
    MARK0000  'MARKER'                 'INTORG'
    x1        obj1                            1
    x1        c31                           777
    x1        c52                           115
    x2        obj1                            1
    x2        c24                           452
    x2        c25                           253
    x2        c37                           749
    x2        c41                           398
    x2        c53                           795
    x2        c60                           313
    x3        obj1                            1
    x3        c2                            285
    x3        c6                            766
    x3        c18                           197
    x3        c38                           341
    x3        c39                           198
    x3        c47                           456
    x3        c49                           414
    x4        obj1                            1
    x4        c6                            926
    x4        c10                           415
    x4        c40                           943
    x5        obj1                            1
    x5        c15                           515
    x5        c21                           413
    x5        c36                           962
    x5        c37                           322
    x5        c42                           737
    x5        c56                           878
    x5        c59                           137
    x6        obj1                            1
    x6        c8                            349
    x6        c18                           178
    x6        c25                           541
    x6        c57                           932
    x7        obj1                            1
    x7        c20                           387
    x7        c24                           799
    x7        c32                           668
    x7        c48                           178
    x7        c60                           688
    x8        obj1                            1
    x8        c2                            677
    x8        c8                            354
    x8        c21                           323
    x8        c29                           115
    x8        c46                           832
    x8        c51                           551
    x9        obj1                            1
    x9        c9                            413
    x9        c10                           427
    x9        c26                           975
    x9        c45                           321
    x10       obj1                            1
    x10       c17                           524
    x10       c21                           978
    x10       c25                           760
    x10       c31                           479
    x10       c38                           552
    x10       c47                           698
    x10       c48                           608
    x10       c56                           831
    x11       obj1                            1
    x11       c19                           176
    x11       c20                           955
    x11       c25                           983
    x11       c34                           937
    x11       c39                           519
    x11       c56                           376
    x12       obj1                            1
    x12       c5                            659
    x12       c12                           556
    x12       c31                           581
    x12       c41                           109
    x12       c51                           131
    x13       obj1                            1
    x13       c22                           204
    x13       c24                           368
    x13       c32                           869
    x13       c39                           610
    x13       c49                           534
    x13       c50                           904
    x14       obj1                            1
    x14       c30                           144
    x14       c47                           259
    x15       obj1                            1
    x15       c7                            855
    x15       c17                           618
    x15       c42                           801
    x15       c44                           611
    x15       c45                           663
    x15       c48                           360
    x16       obj1                            1
    x16       c3                            244
    x16       c4                            513
    x16       c6                            103
    x16       c12                           168
    x16       c23                           812
    x16       c28                           252
    x16       c39                           710
    x16       c46                           568
    x16       c47                           551
    x16       c50                           426
    x17       obj1                            1
    x17       c16                           947
    x17       c23                           714
    x17       c33                           330
    x17       c52                           717
    x18       obj1                            1
    x18       c5                            873
    x18       c14                           777
    x18       c15                           416
    x18       c17                           928
    x18       c33                           636
    x18       c35                           358
    x18       c41                           585
    x18       c49                           743
    x19       obj1                            1
    x19       c16                           171
    x19       c28                           297
    x19       c36                           213
    x19       c44                           235
    x19       c55                           347
    x19       c56                           822
    x20       obj1                            1
    x20       c11                           482
    x20       c42                           169
    x20       c47                           156
    x21       obj1                            1
    x21       c1                            360
    x21       c19                           355
    x21       c55                           122
    x22       obj1                            1
    x22       c4                            608
    x22       c11                           191
    x22       c21                           506
    x22       c30                           585
    x22       c36                           671
    x22       c41                           590
    x22       c57                           321
    x23       obj1                            1
    x23       c21                           212
    x23       c23                           507
    x23       c32                           957
    x23       c33                           858
    x23       c48                           715
    x23       c57                           714
    x24       obj1                            1
    x24       c3                            276
    x24       c17                           258
    x24       c22                           736
    x24       c29                           347
    x24       c43                           681
    x24       c45                           373
    x24       c58                           104
    x25       obj1                            1
    x25       c15                           897
    x25       c27                           656
    x25       c43                           533
    x26       obj1                            1
    x26       c7                            434
    x26       c13                           187
    x26       c18                           579
    x26       c19                           515
    x26       c24                           128
    x26       c47                           453
    x27       obj1                            1
    x27       c8                            213
    x27       c9                            634
    x27       c36                           346
    x27       c41                           871
    x28       obj1                            1
    x28       c1                            363
    x28       c10                           508
    x28       c12                           472
    x28       c56                           179
    x28       c58                           758
    x29       obj1                            1
    x29       c1                            735
    x29       c9                            973
    x29       c28                           391
    x29       c43                           944
    x29       c50                           697
    x29       c52                           646
    x29       c54                           111
    x30       obj1                            1
    x30       c5                            205
    x30       c10                           938
    x30       c17                           183
    x30       c21                           529
    x30       c27                           592
    x30       c55                           408
    x31       obj1                            1
    x31       c7                            676
    x31       c11                           949
    x31       c52                           455
    x31       c56                           192
    x32       obj1                            1
    x32       c1                            802
    x32       c21                           697
    x32       c41                           316
    x33       obj1                            1
    x33       c10                           599
    x33       c24                           916
    x33       c33                           167
    x33       c41                           706
    x33       c55                           150
    x34       obj1                            1
    x34       c2                            547
    x34       c14                           911
    x34       c30                           589
    x34       c31                           637
    x34       c54                           562
    x34       c58                           615
    x35       obj1                            1
    x35       c7                            972
    x35       c24                           927
    x35       c34                           524
    x35       c43                           238
    x35       c45                           346
    x35       c50                           710
    x35       c59                           195
    x35       c60                           427
    x36       obj1                            1
    x36       c9                            841
    x36       c23                           199
    x36       c52                           250
    x37       obj1                            1
    x37       c6                            658
    x37       c15                           704
    x37       c33                           554
    x37       c55                           376
    x38       obj1                            1
    x38       c8                            553
    x38       c10                           241
    x38       c15                           223
    x38       c31                           279
    x38       c36                           529
    x38       c47                           554
    x38       c60                           156
    x39       obj1                            1
    x39       c4                            919
    x39       c7                            449
    x39       c21                           125
    x39       c30                           658
    x39       c38                           188
    x39       c41                           403
    x39       c43                           467
    x39       c53                           383
    x39       c54                           871
    x40       obj1                            1
    x40       c12                           763
    x40       c13                           155
    x40       c19                           523
    x40       c24                           671
    x40       c29                           463
    x40       c33                           271
    x40       c34                           311
    x40       c36                           542
    x40       c40                           211
    x40       c41                           601
    x40       c49                           299
    x40       c54                           158
    x41       obj1                            1
    x41       c28                           854
    x41       c33                           572
    x41       c55                           937
    x42       obj1                            1
    x42       c10                          1000
    x42       c27                           704
    x42       c40                           538
    x42       c51                           109
    x42       c54                           454
    x42       c56                           345
    x43       obj1                            1
    x43       c1                            611
    x43       c7                            388
    x43       c26                           768
    x43       c34                           220
    x43       c39                           979
    x43       c51                           723
    x43       c52                           758
    x43       c58                           518
    x44       obj1                            1
    x44       c1                            869
    x44       c2                            848
    x44       c18                           601
    x44       c27                           613
    x44       c34                           742
    x44       c53                           897
    x45       obj1                            1
    x45       c1                            608
    x45       c20                           419
    x45       c28                           375
    x45       c31                           900
    x45       c36                           591
    x45       c50                           350
    x45       c59                           533
    x46       obj1                            1
    x46       c23                           530
    x46       c26                           249
    x46       c32                           739
    x46       c39                           933
    x46       c44                           999
    x46       c47                           119
    x46       c54                           617
    x46       c55                           399
    x46       c57                           547
    x46       c60                           413
    x47       obj1                            1
    x47       c8                            633
    x47       c31                           764
    x47       c49                           239
    x47       c59                           615
    x48       obj1                            1
    x48       c20                           527
    x48       c27                           681
    x48       c29                           805
    x48       c59                           930
    x49       obj1                            1
    x49       c10                           483
    x49       c12                           614
    x49       c29                           628
    x49       c31                           722
    x49       c35                           233
    x49       c49                           761
    x49       c60                           743
    x50       obj1                            1
    x50       c7                            345
    x50       c10                           612
    x50       c12                           128
    x50       c27                           606
    x50       c39                           796
    x50       c57                           940
    x51       obj1                            1
    x51       c7                            243
    x51       c19                           680
    x51       c26                           543
    x51       c30                           849
    x51       c33                           268
    x51       c54                           601
    x51       c59                           468
    x52       obj1                            1
    x52       c3                            593
    x52       c12                           652
    x52       c15                           568
    x52       c26                           692
    x52       c37                           183
    x52       c40                           313
    x52       c45                           179
    x52       c51                           815
    x52       c52                           613
    x53       obj1                            1
    x53       c18                           812
    x53       c24                           362
    x53       c48                           850
    x53       c55                           206
    x53       c57                           542
    x54       obj1                            1
    x54       c3                            169
    x54       c9                            593
    x54       c26                           434
    x54       c32                           432
    x54       c35                           603
    x54       c39                           677
    x54       c46                           620
    x54       c54                           822
    x54       c60                           213
    x55       obj1                            1
    x55       c13                           964
    x55       c30                           478
    x56       obj1                            1
    x56       c6                            240
    x56       c12                           868
    x56       c16                           217
    x56       c21                           371
    x56       c23                           987
    x56       c24                           715
    x56       c26                           238
    x56       c29                           723
    x56       c45                           142
    x56       c49                           493
    x56       c51                           893
    x57       obj1                            1
    x57       c2                            940
    x57       c12                           172
    x57       c13                           801
    x57       c23                           458
    x57       c27                           913
    x57       c29                           515
    x57       c52                           383
    x57       c59                           759
    x58       obj1                            1
    x58       c1                            905
    x58       c8                            243
    x58       c9                            132
    x58       c17                           834
    x58       c30                           260
    x58       c38                           499
    x59       obj1                            1
    x59       c1                            825
    x59       c22                           164
    x59       c38                           990
    x59       c51                           624
    x60       obj1                            1
    x60       c4                            456
    x60       c7                            293
    x60       c14                           597
    x60       c31                           279
    x60       c38                           262
    x60       c47                           444
    MARK0001  'MARKER'                 'INTEND'
RHS
    rhs       c1                           3039
    rhs       c2                           1649
    rhs       c3                            641
    rhs       c4                           1248
    rhs       c5                            869
    rhs       c6                           1347
    rhs       c7                           2328
    rhs       c8                           1173
    rhs       c9                           1793
    rhs       c10                          2612
    rhs       c11                           811
    rhs       c12                          2197
    rhs       c13                          1054
    rhs       c14                          1143
    rhs       c15                          1662
    rhs       c16                           668
    rhs       c17                          1673
    rhs       c18                          1184
    rhs       c19                          1125
    rhs       c20                          1144
    rhs       c21                          2077
    rhs       c22                           552
    rhs       c23                          2104
    rhs       c24                          2669
    rhs       c25                          1269
    rhs       c26                          1950
    rhs       c27                          2383
    rhs       c28                          1085
    rhs       c29                          1798
    rhs       c30                          1782
    rhs       c31                          2709
    rhs       c32                          1833
    rhs       c33                          1828
    rhs       c34                          1367
    rhs       c35                           597
    rhs       c36                          1927
    rhs       c37                           627
    rhs       c38                          1416
    rhs       c39                          2711
    rhs       c40                          1003
    rhs       c41                          2290
    rhs       c42                           854
    rhs       c43                          1432
    rhs       c44                           923
    rhs       c45                          1012
    rhs       c46                          1010
    rhs       c47                          1845
    rhs       c48                          1356
    rhs       c49                          1742
    rhs       c50                          1544
    rhs       c51                          1923
    rhs       c52                          1969
    rhs       c53                          1038
    rhs       c54                          2098
    rhs       c55                          1473
    rhs       c56                          1812
    rhs       c57                          1998
    rhs       c58                           998
    rhs       c59                          1819
    rhs       c60                          1477
BOUNDS
 LI bnd       x1        0
 LI bnd       x2        0
 LI bnd       x3        0
 LI bnd       x4        0
 LI bnd       x5        0
 LI bnd       x6        0
 LI bnd       x7        0
 LI bnd       x8        0
 LI bnd       x9        0
 LI bnd       x10       0
 LI bnd       x11       0
 LI bnd       x12       0
 LI bnd       x13       0
 LI bnd       x14       0
 LI bnd       x15       0
 LI bnd       x16       0
 LI bnd       x17       0
 LI bnd       x18       0
 LI bnd       x19       0
 LI bnd       x20       0
 LI bnd       x21       0
 LI bnd       x22       0
 LI bnd       x23       0
 LI bnd       x24       0
 LI bnd       x25       0
 LI bnd       x26       0
 LI bnd       x27       0
 LI bnd       x28       0
 LI bnd       x29       0
 LI bnd       x30       0
 LI bnd       x31       0
 LI bnd       x32       0
 LI bnd       x33       0
 LI bnd       x34       0
 LI bnd       x35       0
 LI bnd       x36       0
 LI bnd       x37       0
 LI bnd       x38       0
 LI bnd       x39       0
 LI bnd       x40       0
 LI bnd       x41       0
 LI bnd       x42       0
 LI bnd       x43       0
 LI bnd       x44       0
 LI bnd       x45       0
 LI bnd       x46       0
 LI bnd       x47       0
 LI bnd       x48       0
 LI bnd       x49       0
 LI bnd       x50       0
 LI bnd       x51       0
 LI bnd       x52       0
 LI bnd       x53       0
 LI bnd       x54       0
 LI bnd       x55       0
 LI bnd       x56       0
 LI bnd       x57       0
 LI bnd       x58       0
 LI bnd       x59       0
 LI bnd       x60       0
ENDATA
